Gurobi Optimizer version 9.1.2 build v9.1.2rc0 (linux64)
Thread count: 36 physical cores, 72 logical processors, using up to 32 threads
Optimize a model with 12 rows, 57 columns and 590 nonzeros
Model fingerprint: 0xf32eec78
Model has 47 quadratic constraints
Coefficient statistics:
  Matrix range     [2e-05, 3e+00]
  QMatrix range    [1e+00, 1e+00]
  QLMatrix range   [1e+00, 1e+00]
  Objective range  [8e-03, 7e-01]
  Bounds range     [1e+00, 1e+00]
  RHS range        [1e+00, 1e+00]
Presolve removed 9 rows and 0 columns

Continuous model is non-convex -- solving as a MIP.

Presolve removed 9 rows and 0 columns
Presolve time: 0.00s
Presolved: 189 rows, 57 columns, 443 nonzeros
Presolved model has 47 bilinear constraint(s)
Variable types: 57 continuous, 0 integer (0 binary)

Root relaxation: objective -1.743721e+00, 44 iterations, 0.00 seconds

    Nodes    |    Current Node    |     Objective Bounds      |     Work
 Expl Unexpl |  Obj  Depth IntInf | Incumbent    BestBd   Gap | It/Node Time

     0     0   -1.74372    0   38          -   -1.74372      -     -    0s
H    0     0                       0.6147548   -1.74372   384%     -    0s
     0     0   -1.64739    0    1    0.61475   -1.64739   368%     -    0s
H    0     0                      -1.6450460   -1.64739  0.14%     -    0s
     0     0     cutoff    0        -1.64505   -1.64505  0.00%     -    0s

Cutting planes:
  RLT: 25
  BQP: 3

Explored 1 nodes (76 simplex iterations) in 0.01 seconds
Thread count was 32 (of 72 available processors)

Solution count 2: -1.64505 0.614755 
No other solutions better than -1.64505

Optimal solution found (tolerance 1.00e-04)
Best objective -1.645045978473e+00, best bound -1.645045978473e+00, gap 0.0000%

User-callback calls 78, time in user-callback 0.00 sec
Gurobi Optimizer version 9.1.2 build v9.1.2rc0 (linux64)
Thread count: 36 physical cores, 72 logical processors, using up to 32 threads
Optimize a model with 24 rows, 120 columns and 2480 nonzeros
Model fingerprint: 0xbc0753a1
Model has 100 quadratic constraints
Coefficient statistics:
  Matrix range     [8e-06, 4e+00]
  QMatrix range    [1e+00, 1e+00]
  QLMatrix range   [1e+00, 1e+00]
  Objective range  [5e-03, 1e+00]
  Bounds range     [1e+00, 1e+00]
  RHS range        [1e+00, 1e+00]
Presolve removed 16 rows and 0 columns

Continuous model is non-convex -- solving as a MIP.

Presolve removed 16 rows and 0 columns
Presolve time: 0.00s
Presolved: 408 rows, 120 columns, 1351 nonzeros
Presolved model has 100 bilinear constraint(s)
Variable types: 120 continuous, 0 integer (0 binary)

Root relaxation: objective -7.401615e+00, 143 iterations, 0.00 seconds

    Nodes    |    Current Node    |     Objective Bounds      |     Work
 Expl Unexpl |  Obj  Depth IntInf | Incumbent    BestBd   Gap | It/Node Time

     0     0   -7.40162    0  100          -   -7.40162      -     -    0s
H    0     0                       1.8104638   -7.40162   509%     -    0s
     0     0   -5.40348    0   86    1.81046   -5.40348   398%     -    0s
H    0     0                       0.1239144   -5.40348  4461%     -    0s
     0     0   -4.70242    0  100    0.12391   -4.70242  3895%     -    0s
H    0     0                      -0.0747346   -4.70242  6192%     -    0s
     0     0   -4.61459    0  100   -0.07473   -4.61459  6075%     -    0s
     0     0   -4.44398    0   91   -0.07473   -4.44398  5846%     -    0s
H    0     0                      -0.6667950   -4.44398   566%     -    0s
     0     0   -4.40325    0  100   -0.66680   -4.40325   560%     -    0s
     0     0   -4.36029    0   91   -0.66680   -4.36029   554%     -    0s
H    0     0                      -0.6863540   -4.36029   535%     -    0s
     0     0   -4.35916    0   91   -0.68635   -4.35916   535%     -    0s
     0     0   -4.34148    0  100   -0.68635   -4.34148   533%     -    0s
H    0     0                      -0.7255496   -4.34148   498%     -    0s
     0     0   -4.34032    0  100   -0.72555   -4.34032   498%     -    0s
     0     0   -4.33971    0  100   -0.72555   -4.33971   498%     -    0s
     0     0   -4.33859    0   91   -0.72555   -4.33859   498%     -    0s
     0     0   -4.33850    0   91   -0.72555   -4.33850   498%     -    0s
H    0     0                      -2.9458910   -4.33850  47.3%     -    0s
H    0     0                      -3.2076797   -4.33850  35.3%     -    0s
H    0     0                      -3.3145195   -4.33850  30.9%     -    0s
     0     2   -4.33850    0   91   -3.31452   -4.33850  30.9%     -    0s
*  751   408              29      -3.4736917   -3.84383  10.7%  29.8    0s
*  946   388              31      -3.4737524   -3.84383  10.7%  26.6    0s
* 1000   388              26      -3.4738193   -3.84383  10.7%  25.6    0s
* 1118   502              36      -3.4740042   -3.84383  10.6%  25.2    0s
* 1121   502              36      -3.4743035   -3.84383  10.6%  25.2    0s
* 1122   502              36      -3.4743067   -3.84383  10.6%  25.2    0s
* 1134   502              28      -3.5116149   -3.84383  9.46%  25.1    0s
* 1244   502              24      -3.5624458   -3.84383  7.90%  24.5    0s
* 1258   502              24      -3.6123193   -3.84383  6.41%  24.3    0s
* 1356   391              22      -3.6124295   -3.73421  3.37%  23.4    0s
* 1419   391              20      -3.6188142   -3.73421  3.19%  22.7    0s
* 1420   391              20      -3.6188149   -3.73421  3.19%  22.7    0s
* 1559   332              27      -3.6261821   -3.73421  2.98%  21.0    0s
* 1581   332              23      -3.6460049   -3.73421  2.42%  20.8    0s
* 1612   332              28      -3.6650335   -3.73421  1.89%  20.6    0s
* 1854    48              27      -3.6654124   -3.71022  1.22%  18.6    0s
* 1855    48              27      -3.6654367   -3.71022  1.22%  18.6    0s
* 1922    48              21      -3.6656732   -3.66567  0.00%  18.2    0s

Cutting planes:
  RLT: 79
  BQP: 11
  PSD: 5

Explored 2158 nodes (35632 simplex iterations) in 0.63 seconds
Thread count was 32 (of 72 available processors)

Solution count 10: -3.66567 -3.66544 -3.66541 ... -3.56245
No other solutions better than -3.66567

Optimal solution found (tolerance 1.00e-04)
Best objective -3.665673249715e+00, best bound -3.665673249715e+00, gap 0.0000%

User-callback calls 4630, time in user-callback 0.00 sec



objective value: -3.6656732497148177
objective bound: -3.6656732497148177
x_opt: [0.0, 1.0, 1.0, 1.0, 1.0, 0.0, 0.0, 0.0, 0.2684420927725157, 1.0, 0.0, 0.2688408266888799, 1.0, 0.9154003596645904, 1.0, 0.0, 0.0, 0.0, 0.0, 0.5430885792994598]
GUROBI solution time: 0.631915807723999




